50
237 104 397 155 67 402 918 801 766 222 537 277 173 107 215 928 829 807 801 194 310 627 732 855 881 87 606 672 506 178 474 90 935 866 548 301 909 573 883 849 509 414 599 432 162 306 813 44 47 627 
193 111 391 123 167 341 900 741 793 177 508 327 137 119 296 848 741 753 854 217 257 593 667 847 789 131 686 763 553 270 377 55 1029 921 530 390 933 637 841 787 498 341 575 525 128 207 722 25 116 599 
12263
